50, 13327
794, 792
822, 822
486, 486
262, 261
1, 0
663, 663
471, 471
760, 759
374, 372
771, 771
273, 273
802, 801
730, 729
415, 414
539, 537
683, 681
193, 192
554, 552
806, 804
266, 264
804, 804
686, 684
845, 843
336, 336
94, 93
801, 801
805, 804
446, 444
94, 93
198, 198
635, 633
292, 291
952, 951
589, 588
201, 201
656, 654
361, 360
933, 933
910, 909
515, 513
645, 645
698, 696
806, 804
977, 975
29, 27
362, 360
602, 600
305, 303
590, 588
90, 90
